NAME: random-7-7292
TYPE: TSP
COMMENT: size=7 seed=7292
DIMENSION: 16
EDGE_WEIGHT_TYPE: EUC_2D
NODE_COORD_SECTION
+0 644 235
-0 644 235
+1 612 812
-1 927 726
+2 925 723
-2 468 991
+3 491 220
-3 521 162
+4 66 636
-4 915 615
+5 8 819
-5 810 596
+6 530 662
-6 418 280
+7 921 709
-7 538 813
PRECEDENCE_SECTION
+0 -0
+1 -1
+2 -2
+3 -3
+4 -4
+5 -5
+6 -6
+7 -7
EOF
